c WARNING: for repeatability, setting FPU to use double precision
d VARIABLES            226176       
d CONSTRAINTS          838564       
c ============================[ Problem Statistics ]=============================
c |                                                                             |
c |  Number of variables:        226176                                         |
c |  Number of clauses:          838564                                         |
c |  Parse time:                   0.14 s                                       |
c |                                                                             |
c ============================[ Search Statistics ]==============================
c | Conflicts |          ORIGINAL         |          LEARNT          | Progress |
c |           |    Vars  Clauses Literals |    Limit  Clauses Lit/Cl |          |
c ===============================================================================
c |       100 |  187524   738934  1853651 |   270942      100     94 | 17.089 % |
c |       250 |  187524   738934  1853651 |   298036      250     47 | 17.089 % |
c |       475 |  187524   738934  1853651 |   327840      475     26 | 17.089 % |
c |       812 |  187524   738934  1853651 |   360624      812     20 | 17.089 % |
c |      1318 |  187524   738934  1853651 |   396686     1318     16 | 17.089 % |
c |      2077 |  187524   738934  1853651 |   436355     2077     20 | 17.089 % |
c |      3216 |  187524   738934  1853651 |   479991     3216     28 | 17.089 % |
c |      4924 |  187524   738934  1853651 |   527990     4924     30 | 17.089 % |
c |      7486 |  187524   738934  1853651 |   580789     7486     44 | 17.089 % |
c |     11330 |  187524   738934  1853651 |   638868    11330     45 | 17.089 % |
c |     17096 |  187524   738934  1853651 |   702754    17096     55 | 17.089 % |
c |     25745 |  187524   738934  1853651 |   773030    25745     60 | 17.089 % |
c |     38719 |  187523   738930  1853641 |   850333    38718     92 | 17.090 % |
c |     58180 |  187523   738930  1853641 |   935366    58179     95 | 17.090 % |
c |     87372 |  187523   738930  1853641 |  1028903    87371    113 | 17.090 % |
c |    131161 |  187523   738930  1853641 |  1131793   131160    122 | 17.090 % |
c |    196845 |  187523   738930  1853641 |  1244973   196844    156 | 17.090 % |
c |    295371 |  187523   738930  1853641 |  1369470   295370    181 | 17.090 % |
c |    443160 |  187522   738926  1853631 |  1506417   443156    187 | 17.090 % |
c |    664843 |  187522   738926  1853631 |  1657059   664839    189 | 17.090 % |
c |    997368 |  187522   738926  1853631 |  1822765   997364    198 | 17.090 % |
c ===============================================================================
c restarts              : 2047
c conflicts             : 1126615        (1771 /sec)
c decisions             : 5804356        (0.00 % random) (9124 /sec)
c propagations          : 2162206738     (3398821 /sec)
c conflict literals     : 236987491      (21.89 % deleted)
d RESTARTS             2047
d FAILURES             1126615      
d NODES                5804356      
d BACKTRACKS           5804356      
d PROPAGATIONS         2162206738   
d NOGOODSIZE           210.35 
d MEMORY               1572.00 
d TIME                 636.164 

s SATISFIABLE
